NAME : 0-n5-k4
COMMENT : (Example instances, No of trucks: 4, Optimal value: 68)
TYPE : CVRP
DIMENSION : 5
EDGE_WEIGHT_TYPE : EUC_2D 
CAPACITY : 10
NODE_COORD_SECTION 
 1 0 0
 2 0 10
 3 -10 10
 4 0 -10
 5 10 -10
DEMAND_SECTION 
1 0 
2 3 
3 3 
4 3 
5 3 
DEPOT_SECTION 
 1  
 -1  
EOF 
